0 962 1243 2271 2120 2902 2839 1729 173 2158
962 0 1028 1547 2015 2797 2253 1926 1136 2054
1243 1028 0 1058 1018 1800 1665 928 1309 1056
2271 1547 1058 0 1052 1628 709 1177 2337 1011
2120 2015 1018 1052 0 796 960 408 2063 90
2902 2797 1800 1628 796 0 1094 1203 2859 810
2839 2253 1665 709 960 1094 0 1372 2904 861
1729 1926 928 1177 408 1203 1372 0 1656 496
173 1136 1309 2337 2063 2859 2904 1656 0 2151
2158 2054 1056 1011 90 810 861 496 2151 0
